8717
0, 21, 30, 17, 2, 16, 20, 22, 29, 28, 15, 43, 33, 34, 35, 38, 39, 36, 37, 4, 5, 3, 24, 11, 50, 10, 51, 12, 13, 46, 25, 26, 27, 45, 47, 23, 14, 42, 32, 9, 8, 7, 40, 18, 44, 31, 48, 49, 19, 1, 6, 41, 